1393005.0
916
1 5 6 9 19 20 21 22 23 25 26 29 30 31 33 38 40 41 42 43 44 46 47 49 50 53 57 59 63 65 66 69 70 71 72 74 75 78 81 82 85 88 89 93 97 101 108 109 110 114 118 120 121 122 125 126 127 128 129 131 133 136 137 138 139 140 142 144 147 150 154 159 160 162 165 167 173 180 183 184 186 187 191 192 195 196 197 